data;

param n:=27;
param p:=3;
param r:=[1] 0 [2] 0 [3] 5 [4] 4 [5] 11 [6] 14 [7] 10 [8] 0 [9] 17 [10] 6 [11] 11 [12] 6 [13] 6 [14] 19 [15] 9 [16] 16 [17] 35 [18] 32 [19] 43 [20] 2 [21] 20 [22] 60 [23] 38 [24] 57 [25] 36 [26] 47 [27] 75 ;
param w:=[1] 35 [2] 66 [3] 40 [4] 66 [5] 62 [6] 80 [7] 89 [8] 84 [9] 84 [10] 93 [11] 88 [12] 18 [13] 55 [14] 82 [15] 100 [16] 31 [17] 85 [18] 96 [19] 29 [20] 81 [21] 99 [22] 7 [23] 82 [24] 32 [25] 71 [26] 87 [27] 36 ;

end;
